Traveling Salesman Problem/TSP_generados/Aleatorio1620391036_13.tsp
NAME: Aleatorio1620391036_13.tsp
COMMENT: Randomly generated scenario
TYPE: TSP
DIMENSION: 13
EDGE_WEIGHT_TYPE: ATT
NODE_COORD_SECTION
1 15.9 36.18
2 0.07 45.04
3 17.06 32.75
4 49.65 49.25
5 19.84 39.7
6 34.41 39.56
7 0.35 12.22
8 12.77 16.68
9 39.15 29.38
10 0.33 44.16
11 45.79 24.66
12 1.42 37.61
13 6.48 46.03
