Traveling Salesman Problem/TSP_generados/Aleatorio1620391036_13.opt.tour
NAME: Aleatorio1620391036_13.opt.tour
COMMENT: Optimal solution for Aleatorio1620391036_13 (172.3343469508957)
TYPE: TOUR
DIMENSION: 13
TOUR_SECTION
1 13 2 10 12 7 8 9 11 4 6 5 3
-1
EOF
